Fe Ge Mn
1.00000
       0.00000000000000         2.84828664844055       -2.84828664844055
       5.69657329688110         2.84828664844055        2.84828664844055
       2.84828664844055         0.00000000000000       -2.84828664844055
Fe Ge Mn
4 2 2
Direct 
    0.50 0.50 0.00      Fe
    0.75 0.25 0.50      Fe
    0.00 0.00 0.00      Fe
    0.25 0.75 0.50      Fe
    0.625 0.875 0.75    Ge
    0.125 0.375 0.75    Ge
    0.375 0.125 0.25    Mn
    0.875 0.625 0.25    Mn
